/*********************************************
 * OPL 12.6.0.0 Data
 * Author: Haythem_AR0673349861
 * Creation Date: Apr 13, 2022 at 2:30:59 AM
 *********************************************/
nbObjet = 6; 
p= [[35,12,16,38,5,2],[25,8,9,24,6,8],[12,8,11,27,3,2],[38,15,14,30,2,9],[10,9,8,25,10,5],[19,15,20,14,6,7]]; 
